p edge 29 79
e 1 6
e 1 14
e 1 20
e 1 25
e 2 9
e 2 16
e 2 27
e 3 12
e 3 19
e 4 17
e 4 24
e 5 18
e 5 23
e 6 8
e 6 11
e 6 14
e 6 15
e 6 20
e 6 21
e 6 25
e 7 8
e 7 11
e 7 12
e 7 19
e 7 21
e 7 26
e 7 28
e 8 11
e 8 12
e 8 15
e 8 21
e 8 26
e 8 28
e 9 10
e 9 14
e 9 16
e 9 20
e 9 27
e 10 15
e 10 16
e 10 17
e 10 22
e 10 29
e 11 15
e 11 21
e 11 22
e 11 26
e 11 28
e 12 19
e 12 26
e 13 18
e 13 22
e 13 23
e 13 28
e 13 29
e 14 15
e 14 16
e 14 20
e 14 21
e 14 27
e 15 20
e 15 21
e 15 22
e 15 29
e 16 17
e 16 27
e 17 24
e 18 22
e 18 23
e 18 28
e 19 26
e 20 27
e 21 22
e 21 28
e 21 29
e 22 28
e 22 29
e 26 28
e 28 29
